Reproduction of the Original Problem/Instances/S3-5/S3-10-5-3-s.txt
     300       5    0.10
       1       3       3       1       3      10      16      11      14       6       1
       2       2       3       2       2       0       7       2      10       3       1
       2       3       1       2       1       8       4       9       1      14       1
       3       1       2       1       2       9       1       1       7      12       1
       1       3       1       3       1       1       3      16       4      12       1
       1       1       2       2       3       1       2      16      13       1       1
       1       1       2       2       1       9       8      14      16      12       1
       3       2       2       1       2       1      11      15       2       4       1
       3       2       1       3       1      10       7      13      14       2       1
       1       3       2       1       1       7       9      15      10       2       1
       3       3       3       1       2       7       2      13       3       2       1
       3       1       3       3       3       5       7      16       3       2       1
       2       3       3       1       2       7       0      10      16      14       1
       2       3       2       3       1       5       7      10       2      15       1
       1       2       1       3       3      14       6       8       4       9       1
       3       2       3       3       3       1      12       2       2       2       1
       2       3       1       3       1       1       9      15      11      13       1
       1       1       1       3       1       8       7       6       7       6       1
       2       2       2       1       2      13      10       7       4       3       1
       3       1       1       1       1       5      15       3       3       4       1
       1       3       2       2       2      12       6       2      11       1       1
       2       3       2       1       3       4       0      13       9      13       1
       2       2       2       1       1       2       1      14      13       2       1
       1       2       2       1       3      12      10       3       1      13       1
       1       1       3       3       1      16       8      16       2       3       1
       2       1       2       2       1       5       5       7      11      10       1
       2       2       2       2       2       4      15       9      14      16       1
       2       3       2       3       2       7       7       6       4      12       1
       1       3       3       3       3       2      13      13       1      16       1
       2       3       3       3       2       6      13      11       8      12       1
       2       1       2       2       2       6       9      13      16      14       1
       3       1       1       1       1       9      13       6      11       5       1
       3       3       3       1       1      13       2      10       9      16       1
       1       2       1       2       3       6       9      13       0      16       1
       2       3       3       3       1      10       1       8      15       0       1
       2       3       3       2       1      16       2      16       0       7       1
       1       2       2       3       2      13      16       1      11       5       1
       1       3       3       1       1       9       9      13       5       9       1
       3       1       1       1       3       9      13      15       5       0       1
       1       1       3       1       2      11      12      13       8       8       1
       2       3       3       2       1       1      14       8       0      11       1
       3       2       3       2       2       3       6       6      14       9       1
       2       1       1       3       3       9       7      12       7       8       1
       2       1       2       2       1      12       4       1       7      14       1
       1       1       2       2       3      12      14       0      14       3       1
       3       1       2       2       1      10       5       6      16       7       1
       3       2       3       1       3       8       0      14      14       5       1
       1       1       2       2       3      15       9       9       1       8       1
       2       3       1       3       1      14       2       7       2       2       1
       3       2       2       1       1       2       8      15       0      12       1
       3       1       3       2       1      10      11       3       0       9       1
       2       3       3       3       2      12       1       4       9       1       1
       1       3       1       2       1       9       9       5      10       8       1
       1       3       1       3       3       4      14       4       0       0       1
       2       2       1       1       1      11      16       0      13       7       1
       2       1       1       3       2      11       2       9       6      12       1
       1       3       3       1       3       3      12      14      14       5       1
       2       1       2       1       1       7      16       6      14      15       1
       2       1       1       3       3       6      10      16       5      16       1
       3       2       2       2       1      13      15      15       5      13       1
       3       2       2       1       2       4      14       3       3      14       1
       2       1       3       3       3       9       2      14      10       6       1
       3       3       1       2       3      12      11      12       3       2       1
       3       3       3       2       1       7      16      10      14       0       1
       1       1       1       2       3       7       2       9       1      15       1
       1       3       2       2       3      11       1       3       9       5       1
       1       3       1       1       1       6      14      13       4      15       1
       2       3       2       2       1       0       4       7       1       4       1
       1       1       2       3       3       0      15      12       4       5       1
       3       1       2       3       3       6      15       8      13       0       1
       3       3       2       2       1       5      10       3       4      11       1
       1       1       1       3       2       3      12       0      12      12       1
       3       2       2       1       3      10      15       0       6       0       1
       1       1       2       2       1      14      15      13      10       5       1
       1       1       1       2       2       3       3       6      16       8       1
       1       1       1       1       3       9       0      14      16      15       1
       2       1       1       3       2      12       0      11      15       2       1
       3       1       2       2       2       1      10      12      16       6       1
       2       3       1       2       1       7       1       7      11      11       1
       3       1       3       3       2       0      12       7       9      14       1
       3       3       3       3       3       9       8      16       6      12       1
       2       3       2       3       3       6       7       3       9      10       1
       1       3       3       3       2       8       1      12       5      12       1
       1       1       1       1       1      10       7       5      12       6       1
       2       2       1       3       3       9       2      12       5       4       1
       2       1       2       3       2       8       2      12       4       3       1
       3       2       1       3       1      11      10      11       4      10       1
       3       1       3       3       3       5       4      10       4      10       1
       1       3       3       2       2       6       7       3      13       7       1
       2       3       2       2       1       8       5       6       2       2       1
       3       2       1       3       3      15      15       0       5       3       1
       1       2       2       3       3      16       4      13      15       0       1
       2       3       1       2       1       6       4      11       9       7       1
       3       2       3       3       1      13       9       4      12       1       1
       1       3       1       3       2       9       9      13       2       3       1
       2       1       3       1       1       3       9       7       1      13       1
       1       3       3       1       1      16      12       6      12       9       1
       3       2       2       2       3      16       8       8       3       5       1
       3       3       1       1       3      16       8       6       4      11       1
       1       1       1       2       2       9      14       1      12       3       1
       3       1       3       1       2       6       3       3       1       4       1
       3       2       1       1       3       0      11      15       5      15       1
       2       2       2       1       2      15       8      10       4      10       1
       2       3       3       3       1       0      14       0      15      15       1
       1       3       3       3       1       7       4       9       2       4       1
       2       3       3       2       2       1      10       5      12       9       1
       1       2       2       2       1       1       0       4       7      10       1
       2       3       3       1       1      16       1       5      15      16       1
       1       3       1       2       2       1       0       3       4       9       1
       1       2       2       1       3      14      13      14      14      10       1
       2       3       2       3       1      10      15       3      11      12       1
       1       3       2       1       3      10      13       7      15       0       1
       2       1       1       3       2      11      15      14       0      13       1
       3       1       1       2       2       9       7       3       6      11       1
       3       1       2       2       1       4       7      14       2       9       1
       2       3       2       3       1      11       3       9       9      16       1
       2       3       3       3       3      15       6      12       3       9       1
       3       1       3       1       3       2      16       6       1       2       1
       3       2       3       2       1       0      12       4       7       6       1
       2       1       1       1       1       6       1      11       5      12       1
       3       2       3       1       3       9      13       0      10      11       1
       3       2       2       2       3      10      10       3      12       9       1
       1       2       3       2       1      12      12      14      15      16       1
       3       2       3       3       3      12       0       7      13      12       1
       1       1       2       1       2       0       4       2       6       4       1
       3       1       3       2       1       9       1      14       0      14       1
       1       2       1       2       3       1       6       0       9      12       1
       3       3       3       2       3      15      12      16       6       2       1
       2       1       1       3       2       5       4      14       8       0       1
       3       2       2       3       3       4       7      13      15       0       1
       2       2       2       1       2      13       5      12      10       5       1
       2       1       3       2       1       1       4       9       4       8       1
       2       2       2       1       1       6       3       6       4       6       1
       3       1       1       3       2      14       4       6      10      10       1
       3       1       3       2       3       6      12       8       8       8       1
       3       2       1       1       2       9      11       1      10      13       1
       3       1       2       3       2       8       3       7       7       0       1
       2       1       3       2       1       2       9      10      11       0       1
       1       3       2       1       1       3       9       7      12       8       1
       1       1       1       1       1       1      11      13      12      16       1
       3       3       1       1       1      11      16      14       9       3       1
       2       3       3       2       2       0      15       6      13       0       1
       1       2       1       1       3      14       9       3       4       2       1
       1       1       3       3       2       6       7       4      12       5       1
       3       1       2       3       2      12      11      13       9      12       1
       1       2       3       1       2      13      11       6      11       1       1
       2       1       1       1       3      15       1       2       7      12       1
       3       2       1       3       2       9       5      16      11       9       1
       3       3       3       1       1       4      15       9      11       7       1
       3       3       2       1       2       0       2      12      16      12       1
       1       1       3       1       1      11       7       4       7       2       1
       1       1       1       2       3       6      13       4       2      16       1
       3       2       3       3       1      16      10      10      16       5       1
       3       2       1       3       3       7      14       3      16      16       1
       1       1       1       1       2      16       0       5       1      10       1
       1       3       2       1       3       9      11       5       0       0       1
       2       2       3       2       1      15       1      12       8       4       1
       3       3       1       1       2       5       3      16       9      13       1
       1       2       1       3       1      13       6       9       4       8       1
       3       3       3       3       2      12      10       3       3      12       1
       1       2       3       2       1       7       0       1       2       0       1
       2       2       1       1       1      14       6      16       4       4       1
       2       3       1       1       1      13       4       5       9      12       1
       1       1       1       2       1       0       4       6      10      12       1
       1       3       1       2       1      10      11       0       1       3       1
       3       1       2       2       1      10      11       5       8       7       1
       2       3       2       3       1      14       3       3      14       1       1
       3       2       1       2       3      14       7      16      15      14       1
       3       1       2       2       1       4      14       0      14       4       1
       2       3       1       1       2       0       5      15      16       2       1
       1       3       1       2       1      13       2       6       9       1       1
       1       2       3       2       2       0       6       3       0       1       1
       3       3       2       2       1       1       8      10       6       7       1
       2       3       2       1       2       1       5       8      12      12       1
       2       2       1       1       3      13      11      15       7      13       1
       2       3       3       3       3       8      13       7       6      12       1
       1       2       2       2       3       8      11       5       2      14       1
       1       1       2       1       1       6       5       7      16       5       1
       2       1       1       3       2      16       8      16      13       4       1
       2       3       2       2       2       3      13      12       1      11       1
       1       1       3       2       2      13       2       5       8      10       1
       1       2       1       2       1      10      12       0      14       4       1
       3       2       3       3       3      13       2       3       8       0       1
       1       1       1       3       1       8      12       9      12      14       1
       2       2       1       2       1      11       1       3      14      15       1
       1       2       1       3       1      15       7       3       2       5       1
       3       2       1       3       2       2       0       1      16      16       1
       2       1       3       2       2       5      16      10       6       3       1
       2       1       1       2       1       9      14      10       6       2       1
       3       2       1       2       2       5       5      12      11       2       1
       3       1       1       3       3       8       8      15      10       4       1
       2       3       2       1       2      12      10      10       9      12       1
       3       1       1       3       2      12      14       9       5      11       1
       1       2       2       2       3       2       8       0      16      10       1
       2       1       3       3       3      12      13      10      16      10       1
       3       3       2       3       1      15       6       9       2      13       1
       1       1       2       3       3      14       3       6       2       5       1
       2       2       2       3       3       8      10       1      14       9       1
       3       2       1       2       1       9       0       1      11      11       1
       2       3       1       3       2       7       0      13       4       2       1
       1       3       3       3       3      15      13       4      14       2       1
       2       1       2       1       2      11      16       6      14       1       1
       3       2       1       1       3      13      14      10      15       0       1
       1       2       1       3       3       2      12      11      12      14       1
       3       2       2       1       2      12       4       7       5      15       1
       1       1       2       1       1      10       0       1       8       7       1
       2       3       3       2       3       8       5       3       2       9       1
       3       2       1       2       1       6      11       2      10       9       1
       3       3       2       3       3       0       5       5       8       6       1
       1       3       2       3       2       0       1      10       1      14       1
       2       1       1       3       2       0      13       5      11       1       1
       3       1       1       3       1       1       3      16       4       7       1
       2       2       2       2       3       8      11       1      15       0       1
       3       2       3       2       1       1       7       7      13       6       1
       3       2       1       2       3       6       7       6      15       3       1
       3       1       1       3       1      15      12       8       3       6       1
       2       2       2       3       1       4      12       4       4      13       1
       1       3       3       2       2      10      14      11      12      15       1
       3       1       1       1       2      10       2       9      11       4       1
       1       2       1       2       2       1       0      10       4      16       1
       1       1       3       2       2      11       0      10      13      14       1
       3       1       1       3       1      16      14       8       3       7       1
       2       1       3       1       2      16      13      13       1      12       1
       3       1       3       1       1      12      15       8       9      12       1
       2       2       3       1       2      10      12       1       1       5       1
       2       1       3       3       1      14       1      10      14      11       1
       1       2       1       2       3       2       3       7       2       9       1
       2       2       1       2       3      13      16       7       3      14       1
       3       2       1       1       1      14       1      16       1      15       1
       1       2       2       2       2       4       1       5       5       2       1
       2       2       2       2       3       6       8       5      16       4       1
       3       1       1       1       1      16       7       3       5       2       1
       1       1       1       3       2      15       2      16      13       2       1
       3       3       1       2       3       1       7       1       1       8       1
       2       2       1       3       3       3       7      10       0       8       1
       3       2       1       1       2       0      16      16      14       8       1
       3       1       3       1       2      11      16       7       2       8       1
       3       3       1       2       1      13       9      14      12       1       1
       1       2       1       1       2       6      14       1       1       0       1
       2       1       3       1       3       5       1       9       9      13       1
       2       1       2       1       2       9       1       9       9       1       1
       3       2       2       3       1       9      15      15      15       1       1
       3       1       3       3       2      15      14       9       5       8       1
       3       1       2       3       1      14       5       6      11       1       1
       1       1       2       1       2       0      16       8       8      13       1
       3       3       1       3       1      12       5       4      10       3       1
       1       2       1       1       1      16       0       7       9       5       1
       3       2       1       1       1      15      15       9      16      10       1
       3       2       1       1       3      13       5      14       8      15       1
       3       1       3       3       3      13      14       1      15       8       1
       2       1       2       2       1       3      15      11       8       8       1
       3       3       1       3       1       6      13      14      15      11       1
       3       1       1       2       1      12      15       3       2       6       1
       3       1       1       1       2       5       5       0       3      15       1
       2       3       2       3       2      11       2       9       1       6       1
       2       3       1       1       1       5       3       2      16       2       1
       3       2       3       2       1       7       3      15       0       5       1
       1       1       3       2       2       3       6       4       5       4       1
       3       1       3       3       3       8      14       4       8       8       1
       1       1       1       1       2      14       6      13       2       5       1
       1       2       3       2       1      14       7       8      12       7       1
       1       3       1       2       1       3       8      15      15      12       1
       1       1       2       2       3       5      10       7      10       7       1
       3       2       1       1       3       7      13       9      10      16       1
       1       2       1       1       2      16       1       1       9      12       1
       3       1       2       3       1       9      13       3       0       6       1
       3       2       2       1       2       6       4      15       9      16       1
       3       2       3       3       3       2       4      12       4      12       1
       1       1       1       1       3      13      14       6       4       7       1
       1       1       1       2       3      16       3      11       1       5       1
       2       2       2       2       2      12       2       7       4       5       1
       1       1       1       2       1      13       9       4       0       9       1
       2       1       3       2       2       1       7      12       0       6       1
       1       1       1       1       2       1       3       4      15       4       1
       1       2       1       1       2       0      10      12       5       0       1
       1       1       3       1       3      11      14      15       6      15       1
       2       1       1       1       3      16      15       7       8       1       1
       2       2       2       1       2       2       8      13       0      12       1
       3       2       1       3       1      12       5      10      11       6       1
       1       3       1       2       2      11       6      15       2       2       1
       3       1       2       1       2       6      14      11      14       9       1
       2       1       1       1       1       6       7       7      13      11       1
       3       2       3       2       3       5       8       8       0       1       1
       2       1       3       1       1       3       4      16      15       2       1
       2       1       2       1       1       8      16      13       8      12       1
       3       2       1       1       2       9      10      14       3      11       1
       2       2       1       3       3       3      14      16       3       7       1
       3       2       1       1       3      16       6       2      13      11       1
       3       1       1       2       3       9      11      10       2       1       1
       3       3       1       2       2       3      12       1       8      16       1
       2       1       1       3       2       0       5       8       7      12       1
       1       2       2       2       3      11       3       6       6       9       1
       2       1       1       2       2      16      10      16      10       8       1
       3       3       2       1       2       0       9       8      16       6       1
       1       2       1       3       2       8      13       0      12      13       1
       1       2       1       3       3       3      11       6       0       3       1
       2       3       3       2       2      16      13       3      15      15       1
       2       2       1       2       3      14      16       3      12      14       1
       1       2       1       2       1       6       6      14      15      12       1
       1       2       1       1       1       4       3       6       2      14       1
      87      90     108     104     101
     240     120     120     120     120
     311     351     575     294     478