Reproduction of the Original Problem/results-log/S3-5/S3-10-5-3-s.log
CPXPARAM_Read_DataCheck                          1
Found incumbent of value 0.000000 after 0.00 sec. (0.04 ticks)
Tried aggregator 1 time.
MIP Presolve modified 1 coefficients.
Reduced MIP has 316 rows, 1505 columns, and 7515 nonzeros.
Reduced MIP has 1505 binaries, 0 generals, 0 SOSs, and 0 indicators.
Presolve time = 0.00 sec. (3.15 ticks)
Probing time = 0.00 sec. (1.63 ticks)
Tried aggregator 1 time.
Reduced MIP has 316 rows, 1505 columns, and 7515 nonzeros.
Reduced MIP has 1505 binaries, 0 generals, 0 SOSs, and 0 indicators.
Presolve time = 0.00 sec. (3.71 ticks)
Probing time = 0.00 sec. (1.63 ticks)
Clique table members: 1800.
MIP emphasis: balance optimality and feasibility.
MIP search method: dynamic search.
Parallel mode: deterministic, using up to 4 threads.
Root relaxation solution time = 0.02 sec. (8.21 ticks)

        Nodes                                         Cuts/
   Node  Left     Objective  IInf  Best Integer    Best Bound    ItCnt     Gap

*     0+    0                            0.0000     9378.0000              --- 
*     0+    0                         1075.0000     9378.0000           772.37%
      0     0     3167.8200     5     1075.0000     3167.8200      477  194.68%
      0     0     2250.3444   286     1075.0000     Cuts: 179      858  109.33%
*     0+    0                         1669.0000     2250.3444            34.83%
      0     0        cutoff           1669.0000     1669.0000     1195    0.00%
Elapsed time = 0.17 sec. (143.80 ticks, tree = 0.01 MB, solutions = 3)

Clique cuts applied:  308
Cover cuts applied:  5
Implied bound cuts applied:  5
Mixed integer rounding cuts applied:  5

Root node processing (before b&c):
  Real time             =    0.17 sec. (143.92 ticks)
Parallel b&c, 4 threads:
  Real time             =    0.00 sec. (0.00 ticks)
  Sync time (average)   =    0.00 sec.
  Wait time (average)   =    0.00 sec.
                          ------------
Total (root+branch&cut) =    0.17 sec. (143.92 ticks)
